(set-logic BV)
(set-info :status unknown)
(declare-fun ex_21 () (_ BitVec 1))
(declare-fun ex_16 () (_ BitVec 1))
(declare-fun ex_11 () (_ BitVec 1))
(declare-fun ex_6 () (_ BitVec 1))
(declare-fun ex_1 () (_ BitVec 1))
(declare-fun ex_24 () (_ BitVec 1))
(declare-fun ex_23 () (_ BitVec 1))
(declare-fun ex_5 () (_ BitVec 1))
(declare-fun ex_4 () (_ BitVec 1))
(declare-fun ex_25 () (_ BitVec 1))
(declare-fun ex_20 () (_ BitVec 1))
(declare-fun ex_19 () (_ BitVec 1))
(declare-fun ex_18 () (_ BitVec 1))
(declare-fun ex_14 () (_ BitVec 1))
(declare-fun ex_13 () (_ BitVec 1))
(declare-fun ex_22 () (_ BitVec 1))
(declare-fun ex_17 () (_ BitVec 1))
(declare-fun ex_12 () (_ BitVec 1))
(declare-fun ex_3 () (_ BitVec 1))
(declare-fun ex_2 () (_ BitVec 1))
(declare-fun ex_15 () (_ BitVec 1))
(declare-fun ex_10 () (_ BitVec 1))
(declare-fun ex_9 () (_ BitVec 1))
(declare-fun ex_8 () (_ BitVec 1))
(declare-fun ex_7 () (_ BitVec 1))
(assert
 (forall ((exaux_1_25 (_ BitVec 5)) (cxaux_1_25 (_ BitVec 5)) (s_13 (_ BitVec 1)) (cx_1 (_ BitVec 1)) (cx_2 (_ BitVec 1)) (cx_6 (_ BitVec 1)) (cx_7 (_ BitVec 1)) (s_14 (_ BitVec 1)) (cx_8 (_ BitVec 1)) (cx_12 (_ BitVec 1)) (cx_13 (_ BitVec 1)) (s_15 (_ BitVec 1)) (cx_3 (_ BitVec 1)) (cx_4 (_ BitVec 1)) (cx_9 (_ BitVec 1)) (s_16 (_ BitVec 1)) (cx_10 (_ BitVec 1)) (cx_14 (_ BitVec 1)) (cx_15 (_ BitVec 1)) (s_17 (_ BitVec 1)) (s_18 (_ BitVec 1)) (cx_21 (_ BitVec 1)) (cx_22 (_ BitVec 1)) (s_19 (_ BitVec 1)) (cx_11 (_ BitVec 1)) (cx_16 (_ BitVec 1)) (cx_17 (_ BitVec 1)) (s_20 (_ BitVec 1)) (cx_18 (_ BitVec 1)) (cx_23 (_ BitVec 1)) (s_21 (_ BitVec 1)) (cx_19 (_ BitVec 1)) (s_22 (_ BitVec 1)) (cx_20 (_ BitVec 1)) (cx_24 (_ BitVec 1)) (cx_25 (_ BitVec 1)) (s_23 (_ BitVec 1)) (cx_5 (_ BitVec 1)) (s_24 (_ BitVec 1)) )(let (($x302 (bvule cxaux_1_25 (ite (bvule exaux_1_25 (_ bv2 5)) exaux_1_25 (_ bv2 5)))))
 (let (($x517 (= s_24 (bvadd cx_23 cx_24))))
 (let (($x520 (= s_23 (bvadd cx_4 cx_5))))
 (let (($x525 (and (= s_22 (bvadd cx_19 (bvadd cx_20 (bvadd cx_24 cx_25)))) (and $x520 (and $x517 $x302)))))
 (let (($x535 (and (= s_20 (bvadd cx_17 (bvadd cx_18 (bvadd cx_22 cx_23)))) (and (= s_21 (bvadd cx_13 (bvadd cx_14 (bvadd cx_18 cx_19)))) $x525))))
 (let (($x542 (= s_18 (bvadd cx_21 cx_22))))
 (let (($x543 (and $x542 (and (= s_19 (bvadd cx_11 (bvadd cx_12 (bvadd cx_16 cx_17)))) $x535))))
 (let (($x545 (= s_17 (bvadd cx_2 cx_3))))
 (let (($x550 (and (= s_16 (bvadd cx_9 (bvadd cx_10 (bvadd cx_14 cx_15)))) (and $x545 $x543))))
 (let (($x559 (and (= s_14 (bvadd cx_7 (bvadd cx_8 (bvadd cx_12 cx_13)))) (and (= s_15 (bvadd cx_3 (bvadd cx_4 (bvadd cx_8 cx_9)))) $x550))))
 (let (($x353 (= s_13 (bvadd cx_1 (bvadd cx_2 (bvadd cx_6 cx_7))))))
 (let (($x562 (= ex_1 (bvadd cx_1 cx_6 cx_11 cx_16 cx_21 ex_6 ex_11 ex_16 ex_21))))
 (let (($x563 (= s_24 (bvadd ex_23 ex_24))))
 (let (($x564 (= s_23 (bvadd ex_4 ex_5))))
 (let (($x568 (= s_19 (bvadd ex_11 ex_12 ex_16 ex_17))))
 (let (($x569 (= s_18 (bvadd ex_21 ex_22))))
 (let (($x575 (and (= s_13 (bvadd ex_1 ex_2 ex_6 ex_7)) (= s_14 (bvadd ex_7 ex_8 ex_12 ex_13)) (= s_15 (bvadd ex_3 ex_4 ex_8 ex_9)) (= s_16 (bvadd ex_9 ex_10 ex_14 ex_15)) (= s_17 (bvadd ex_2 ex_3)) $x569 $x568 (= s_20 (bvadd ex_17 ex_18 ex_22 ex_23)) (= s_21 (bvadd ex_13 ex_14 ex_18 ex_19)) (= s_22 (bvadd ex_19 ex_20 ex_24 ex_25)) $x564 $x563 $x562)))
 (let (($x300 (bvule exaux_1_25 (_ bv2 5))))
 (let ((?x198 (bvadd (bvadd (bvadd (_ bv0 5) ((_ zero_extend 4) ex_1)) ((_ zero_extend 4) ex_2)) ((_ zero_extend 4) ex_3))))
 (let ((?x142 (bvadd (bvadd (bvadd ?x198 ((_ zero_extend 4) ex_4)) ((_ zero_extend 4) ex_5)) ((_ zero_extend 4) ex_6))))
 (let ((?x219 (bvadd (bvadd (bvadd ?x142 ((_ zero_extend 4) ex_7)) ((_ zero_extend 4) ex_8)) ((_ zero_extend 4) ex_9))))
 (let ((?x225 (bvadd (bvadd (bvadd ?x219 ((_ zero_extend 4) ex_10)) ((_ zero_extend 4) ex_11)) ((_ zero_extend 4) ex_12))))
 (let ((?x233 (bvadd (bvadd (bvadd ?x225 ((_ zero_extend 4) ex_13)) ((_ zero_extend 4) ex_14)) ((_ zero_extend 4) ex_15))))
 (let ((?x115 (bvadd (bvadd (bvadd ?x233 ((_ zero_extend 4) ex_16)) ((_ zero_extend 4) ex_17)) ((_ zero_extend 4) ex_18))))
 (let ((?x45 (bvadd (bvadd (bvadd ?x115 ((_ zero_extend 4) ex_19)) ((_ zero_extend 4) ex_20)) ((_ zero_extend 4) ex_21))))
 (let ((?x123 (bvadd (bvadd (bvadd ?x45 ((_ zero_extend 4) ex_22)) ((_ zero_extend 4) ex_23)) ((_ zero_extend 4) ex_24))))
 (let (($x579 (= (bvadd ?x123 ((_ zero_extend 4) ex_25)) exaux_1_25)))
 (let ((?x375 ((_ zero_extend 4) cx_25)))
 (let ((?x376 ((_ zero_extend 4) cx_24)))
 (let ((?x377 ((_ zero_extend 4) cx_23)))
 (let ((?x384 ((_ zero_extend 4) cx_22)))
 (let ((?x380 ((_ zero_extend 4) cx_19)))
 (let ((?x378 ((_ zero_extend 4) cx_18)))
 (let ((?x381 ((_ zero_extend 4) cx_16)))
 (let ((?x385 ((_ zero_extend 4) cx_15)))
 (let ((?x386 ((_ zero_extend 4) cx_14)))
 (let ((?x387 ((_ zero_extend 4) cx_13)))
 (let ((?x388 ((_ zero_extend 4) cx_12)))
 (let ((?x382 ((_ zero_extend 4) cx_11)))
 (let ((?x390 ((_ zero_extend 4) cx_9)))
 (let ((?x393 ((_ zero_extend 4) cx_8)))
 (let ((?x391 ((_ zero_extend 4) cx_7)))
 (let ((?x392 ((_ zero_extend 4) cx_6)))
 (let ((?x394 ((_ zero_extend 4) cx_4)))
 (let ((?x395 ((_ zero_extend 4) cx_3)))
 (let ((?x588 (bvadd (bvadd (bvadd (bvadd (_ bv0 5) ((_ zero_extend 4) cx_1)) ((_ zero_extend 4) cx_2)) ?x395) ?x394)))
 (let ((?x593 (bvadd (bvadd (bvadd (bvadd (bvadd ?x588 ((_ zero_extend 4) cx_5)) ?x392) ?x391) ?x393) ?x390)))
 (let ((?x598 (bvadd (bvadd (bvadd (bvadd (bvadd ?x593 ((_ zero_extend 4) cx_10)) ?x382) ?x388) ?x387) ?x386)))
 (let ((?x603 (bvadd (bvadd (bvadd (bvadd (bvadd ?x598 ?x385) ?x381) ((_ zero_extend 4) cx_17)) ?x378) ?x380)))
 (let ((?x607 (bvadd (bvadd (bvadd (bvadd ?x603 ((_ zero_extend 4) cx_20)) ((_ zero_extend 4) cx_21)) ?x384) ?x377)))
 (or (not (and $x579 (= (bvadd (bvadd ?x607 ?x376) ?x375) cxaux_1_25) $x579)) (and $x300 (not (and $x575 (and $x353 $x559))))))))))))))))))))))))))))))))))))))))))))))))))))))))
 )
(check-sat)